c Standarized MaxSat Instance
c{
c "sha1sum": "70acf977aef831f380b753541aea64ae4c473633",
c "nvars": 140,
c "ncls": 1260,
c "total_lits": 2520,
c "nhards": 0,
c "nhard_nlits": 0,
c "nhard_len_stats":
c    { "min": 0,
c      "max": 0,
c      "ave": 0.0000,
c      "stddev": 0.0000 },
c "nsofts": 1260,
c "nsoft_nlits": 2520,
c "nsoft_len_stats":
c    { "min": 2,
c      "max": 2,
c      "ave": 2.0000,
c      "stddev": 0.0000 },
c "nsoft_wts": 1,
c "soft_wt_stats":
c    { "min": 1,
c      "max": 1,
c      "ave": 1.0000,
c      "stddev": 0.0000 }
c}
c------------------------------------------------------------
c strEdges: 189  randomEdges: 441 
c degrees:  2  3 
c girth: 10 max: 8.032766  
c Hgirth mixed MAXCUT instance
c generated from an undirected graph
c to solve unweighted MaxCut
1 132 96 0
1 -132 -96 0
1 132 92 0
1 -132 -92 0
1 132 107 0
1 -132 -107 0
1 113 20 0
1 -113 -20 0
1 113 49 0
1 -113 -49 0
1 113 5 0
1 -113 -5 0
1 42 14 0
1 -42 -14 0
1 42 43 0
1 -42 -43 0
1 42 106 0
1 -42 -106 0
1 115 130 0
1 -115 -130 0
1 115 29 0
1 -115 -29 0
1 115 68 0
1 -115 -68 0
1 83 37 0
1 -83 -37 0
1 83 86 0
1 -83 -86 0
1 99 28 0
1 -99 -28 0
1 99 74 0
1 -99 -74 0
1 99 130 0
1 -99 -130 0
1 80 9 0
1 -80 -9 0
1 80 43 0
1 -80 -43 0
1 80 138 0
1 -80 -138 0
1 45 49 0
1 -45 -49 0
1 45 44 0
1 -45 -44 0
1 39 43 0
1 -39 -43 0
1 39 81 0
1 -39 -81 0
1 39 29 0
1 -39 -29 0
1 48 33 0
1 -48 -33 0
1 48 121 0
1 -48 -121 0
1 48 91 0
1 -48 -91 0
1 100 81 0
1 -100 -81 0
1 100 13 0
1 -100 -13 0
1 89 106 0
1 -89 -106 0
1 89 114 0
1 -89 -114 0
1 89 105 0
1 -89 -105 0
1 30 86 0
1 -30 -86 0
1 30 14 0
1 -30 -14 0
1 30 47 0
1 -30 -47 0
1 95 75 0
1 -95 -75 0
1 95 126 0
1 -95 -126 0
1 69 66 0
1 -69 -66 0
1 69 18 0
1 -69 -18 0
1 82 70 0
1 -82 -70 0
1 82 16 0
1 -82 -16 0
1 23 138 0
1 -23 -138 0
1 23 94 0
1 -23 -94 0
1 23 4 0
1 -23 -4 0
1 140 51 0
1 -140 -51 0
1 140 37 0
1 -140 -37 0
1 140 103 0
1 -140 -103 0
1 8 93 0
1 -8 -93 0
1 8 51 0
1 -8 -51 0
1 52 121 0
1 -52 -121 0
1 52 127 0
1 -52 -127 0
1 22 13 0
1 -22 -13 0
1 22 96 0
1 -22 -96 0
1 22 47 0
1 -22 -47 0
1 118 123 0
1 -118 -123 0
1 118 36 0
1 -118 -36 0
1 118 75 0
1 -118 -75 0
1 10 104 0
1 -10 -104 0
1 10 4 0
1 -10 -4 0
1 10 86 0
1 -10 -86 0
1 111 90 0
1 -111 -90 0
1 111 51 0
1 -111 -51 0
1 111 36 0
1 -111 -36 0
1 131 44 0
1 -131 -44 0
1 131 77 0
1 -131 -77 0
1 134 94 0
1 -134 -94 0
1 134 26 0
1 -134 -26 0
1 79 65 0
1 -79 -65 0
1 79 9 0
1 -79 -9 0
1 79 129 0
1 -79 -129 0
1 117 56 0
1 -117 -56 0
1 117 90 0
1 -117 -90 0
1 117 20 0
1 -117 -20 0
1 24 68 0
1 -24 -68 0
1 24 56 0
1 -24 -56 0
1 108 112 0
1 -108 -112 0
1 108 81 0
1 -108 -81 0
1 108 35 0
1 -108 -35 0
1 2 119 0
1 -2 -119 0
1 2 136 0
1 -2 -136 0
1 2 50 0
1 -2 -50 0
1 21 78 0
1 -21 -78 0
1 21 18 0
1 -21 -18 0
1 21 33 0
1 -21 -33 0
1 58 18 0
1 -58 -18 0
1 58 53 0
1 -58 -53 0
1 27 84 0
1 -27 -84 0
1 27 112 0
1 -27 -112 0
1 27 91 0
1 -27 -91 0
1 110 36 0
1 -110 -36 0
1 110 106 0
1 -110 -106 0
1 110 46 0
1 -110 -46 0
1 1 6 0
1 -1 -6 0
1 1 16 0
1 -1 -16 0
1 1 57 0
1 -1 -57 0
1 62 40 0
1 -62 -40 0
1 62 56 0
1 -62 -56 0
1 62 84 0
1 -62 -84 0
1 60 128 0
1 -60 -128 0
1 60 20 0
1 -60 -20 0
1 60 120 0
1 -60 -120 0
1 125 25 0
1 -125 -25 0
1 125 67 0
1 -125 -67 0
1 125 90 0
1 -125 -90 0
1 98 105 0
1 -98 -105 0
1 98 70 0
1 -98 -70 0
1 98 37 0
1 -98 -37 0
1 59 53 0
1 -59 -53 0
1 59 71 0
1 -59 -71 0
1 59 128 0
1 -59 -128 0
1 7 126 0
1 -7 -126 0
1 7 13 0
1 -7 -13 0
1 7 49 0
1 -7 -49 0
1 137 4 0
1 -137 -4 0
1 137 67 0
1 -137 -67 0
1 137 33 0
1 -137 -33 0
1 63 50 0
1 -63 -50 0
1 63 104 0
1 -63 -104 0
1 63 44 0
1 -63 -44 0
1 133 29 0
1 -133 -29 0
1 133 78 0
1 -133 -78 0
1 133 6 0
1 -133 -6 0
1 15 57 0
1 -15 -57 0
1 15 64 0
1 -15 -64 0
1 135 139 0
1 -135 -139 0
1 135 28 0
1 -135 -28 0
1 101 16 0
1 -101 -16 0
1 101 25 0
1 -101 -25 0
1 19 136 0
1 -19 -136 0
1 19 94 0
1 -19 -94 0
1 19 40 0
1 -19 -40 0
1 41 120 0
1 -41 -120 0
1 41 35 0
1 -41 -35 0
1 41 139 0
1 -41 -139 0
1 34 127 0
1 -34 -127 0
1 34 65 0
1 -34 -65 0
1 116 5 0
1 -116 -5 0
1 116 57 0
1 -116 -57 0
1 116 129 0
1 -116 -129 0
1 55 67 0
1 -55 -67 0
1 55 126 0
1 -55 -126 0
1 55 74 0
1 -55 -74 0
1 3 35 0
1 -3 -35 0
1 3 26 0
1 -3 -26 0
1 3 105 0
1 -3 -105 0
1 32 38 0
1 -32 -38 0
1 32 70 0
1 -32 -70 0
1 32 53 0
1 -32 -53 0
1 31 107 0
1 -31 -107 0
1 31 84 0
1 -31 -84 0
1 31 38 0
1 -31 -38 0
1 109 64 0
1 -109 -64 0
1 109 72 0
1 -109 -72 0
1 109 93 0
1 -109 -93 0
1 73 72 0
1 -73 -72 0
1 73 121 0
1 -73 -121 0
1 73 50 0
1 -73 -50 0
1 11 12 0
1 -11 -12 0
1 11 77 0
1 -11 -77 0
1 88 91 0
1 -88 -91 0
1 88 123 0
1 -88 -123 0
1 124 47 0
1 -124 -47 0
1 124 12 0
1 -124 -12 0
1 124 64 0
1 -124 -64 0
1 17 129 0
1 -17 -129 0
1 17 123 0
1 -17 -123 0
1 97 77 0
1 -97 -77 0
1 97 107 0
1 -97 -107 0
1 97 9 0
1 -97 -9 0
1 54 46 0
1 -54 -46 0
1 54 28 0
1 -54 -28 0
1 54 12 0
1 -54 -12 0
1 87 103 0
1 -87 -103 0
1 87 92 0
1 -87 -92 0
1 102 26 0
1 -102 -26 0
1 102 75 0
1 -102 -75 0
1 76 71 0
1 -76 -71 0
1 76 138 0
1 -76 -138 0
1 76 72 0
1 -76 -72 0
1 85 74 0
1 -85 -74 0
1 85 65 0
1 -85 -65 0
1 85 103 0
1 -85 -103 0
1 61 114 0
1 -61 -114 0
1 61 119 0
1 -61 -119 0
1 61 25 0
1 -61 -25 0
1 122 92 0
1 -122 -92 0
1 122 66 0
1 -122 -66 0
1 122 114 0
1 -122 -114 0
1 100 107 0
1 -100 -107 0
1 15 61 0
1 -15 -61 0
1 98 106 0
1 -98 -106 0
1 60 46 0
1 -60 -46 0
1 87 75 0
1 -87 -75 0
1 69 24 0
1 -69 -24 0
1 80 38 0
1 -80 -38 0
1 100 49 0
1 -100 -49 0
1 57 91 0
1 -57 -91 0
1 132 3 0
1 -132 -3 0
1 15 65 0
1 -15 -65 0
1 46 103 0
1 -46 -103 0
1 135 93 0
1 -135 -93 0
1 45 31 0
1 -45 -31 0
1 83 116 0
1 -83 -116 0
1 24 1 0
1 -24 -1 0
1 13 56 0
1 -13 -56 0
1 135 18 0
1 -135 -18 0
1 42 30 0
1 -42 -30 0
1 125 13 0
1 -125 -13 0
1 105 71 0
1 -105 -71 0
1 39 131 0
1 -39 -131 0
1 132 42 0
1 -132 -42 0
1 113 11 0
1 -113 -11 0
1 31 13 0
1 -31 -13 0
1 132 22 0
1 -132 -22 0
1 75 36 0
1 -75 -36 0
1 63 138 0
1 -63 -138 0
1 34 68 0
1 -34 -68 0
1 17 76 0
1 -17 -76 0
1 58 60 0
1 -58 -60 0
1 115 3 0
1 -115 -3 0
1 10 116 0
1 -10 -116 0
1 62 44 0
1 -62 -44 0
1 29 103 0
1 -29 -103 0
1 2 73 0
1 -2 -73 0
1 2 60 0
1 -2 -60 0
1 131 78 0
1 -131 -78 0
1 52 106 0
1 -52 -106 0
1 104 46 0
1 -104 -46 0
1 115 22 0
1 -115 -22 0
1 34 122 0
1 -34 -122 0
1 111 88 0
1 -111 -88 0
1 111 130 0
1 -111 -130 0
1 125 40 0
1 -125 -40 0
1 132 31 0
1 -132 -31 0
1 52 9 0
1 -52 -9 0
1 52 134 0
1 -52 -134 0
1 45 36 0
1 -45 -36 0
1 21 68 0
1 -21 -68 0
1 121 38 0
1 -121 -38 0
1 22 25 0
1 -22 -25 0
1 86 90 0
1 -86 -90 0
1 10 96 0
1 -10 -96 0
1 88 97 0
1 -88 -97 0
1 19 102 0
1 -19 -102 0
1 85 64 0
1 -85 -64 0
1 21 119 0
1 -21 -119 0
1 95 112 0
1 -95 -112 0
1 45 71 0
1 -45 -71 0
1 87 112 0
1 -87 -112 0
1 131 2 0
1 -131 -2 0
1 21 7 0
1 -21 -7 0
1 67 91 0
1 -67 -91 0
1 58 17 0
1 -58 -17 0
1 15 67 0
1 -15 -67 0
1 9 114 0
1 -9 -114 0
1 91 103 0
1 -91 -103 0
1 102 25 0
1 -102 -25 0
1 17 6 0
1 -17 -6 0
1 52 41 0
1 -52 -41 0
1 48 15 0
1 -48 -15 0
1 44 16 0
1 -44 -16 0
1 11 126 0
1 -11 -126 0
1 3 120 0
1 -3 -120 0
1 23 97 0
1 -23 -97 0
1 15 51 0
1 -15 -51 0
1 18 25 0
1 -18 -25 0
1 122 67 0
1 -122 -67 0
1 27 37 0
1 -27 -37 0
1 1 92 0
1 -1 -92 0
1 32 96 0
1 -32 -96 0
1 7 32 0
1 -7 -32 0
1 9 43 0
1 -9 -43 0
1 33 68 0
1 -33 -68 0
1 128 50 0
1 -128 -50 0
1 31 36 0
1 -31 -36 0
1 30 38 0
1 -30 -38 0
1 117 37 0
1 -117 -37 0
1 75 139 0
1 -75 -139 0
1 22 108 0
1 -22 -108 0
1 78 103 0
1 -78 -103 0
1 98 6 0
1 -98 -6 0
1 58 4 0
1 -58 -4 0
1 8 55 0
1 -8 -55 0
1 117 4 0
1 -117 -4 0
1 2 81 0
1 -2 -81 0
1 106 13 0
1 -106 -13 0
1 45 33 0
1 -45 -33 0
1 88 67 0
1 -88 -67 0
1 73 36 0
1 -73 -36 0
1 125 32 0
1 -125 -32 0
1 84 91 0
1 -84 -91 0
1 22 4 0
1 -22 -4 0
1 39 35 0
1 -39 -35 0
1 1 61 0
1 -1 -61 0
1 23 55 0
1 -23 -55 0
1 82 104 0
1 -82 -104 0
1 7 6 0
1 -7 -6 0
1 63 135 0
1 -63 -135 0
1 41 6 0
1 -41 -6 0
1 125 98 0
1 -125 -98 0
1 40 92 0
1 -40 -92 0
1 39 19 0
1 -39 -19 0
1 40 67 0
1 -40 -67 0
1 138 12 0
1 -138 -12 0
1 63 47 0
1 -63 -47 0
1 131 65 0
1 -131 -65 0
1 73 25 0
1 -73 -25 0
1 137 34 0
1 -137 -34 0
1 117 75 0
1 -117 -75 0
1 18 114 0
1 -18 -114 0
1 3 123 0
1 -3 -123 0
1 56 126 0
1 -56 -126 0
1 6 77 0
1 -6 -77 0
1 63 72 0
1 -63 -72 0
1 45 112 0
1 -45 -112 0
1 17 127 0
1 -17 -127 0
1 80 77 0
1 -80 -77 0
1 98 18 0
1 -98 -18 0
1 27 105 0
1 -27 -105 0
1 111 71 0
1 -111 -71 0
1 82 106 0
1 -82 -106 0
1 98 44 0
1 -98 -44 0
1 140 68 0
1 -140 -68 0
1 45 19 0
1 -45 -19 0
1 53 103 0
1 -53 -103 0
1 84 29 0
1 -84 -29 0
1 69 77 0
1 -69 -77 0
1 14 29 0
1 -14 -29 0
1 100 18 0
1 -100 -18 0
1 31 121 0
1 -31 -121 0
1 131 103 0
1 -131 -103 0
1 100 8 0
1 -100 -8 0
1 130 67 0
1 -130 -67 0
1 48 50 0
1 -48 -50 0
1 1 103 0
1 -1 -103 0
1 33 72 0
1 -33 -72 0
1 58 33 0
1 -58 -33 0
1 125 56 0
1 -125 -56 0
1 91 71 0
1 -91 -71 0
1 96 72 0
1 -96 -72 0
1 135 90 0
1 -135 -90 0
1 44 64 0
1 -44 -64 0
1 125 84 0
1 -125 -84 0
1 135 94 0
1 -135 -94 0
1 26 114 0
1 -26 -114 0
1 18 40 0
1 -18 -40 0
1 78 139 0
1 -78 -139 0
1 113 76 0
1 -113 -76 0
1 133 105 0
1 -133 -105 0
1 102 86 0
1 -102 -86 0
1 108 71 0
1 -108 -71 0
1 62 75 0
1 -62 -75 0
1 103 114 0
1 -103 -114 0
1 62 11 0
1 -62 -11 0
1 131 25 0
1 -131 -25 0
1 131 108 0
1 -131 -108 0
1 11 51 0
1 -11 -51 0
1 41 75 0
1 -41 -75 0
1 89 65 0
1 -89 -65 0
1 19 107 0
1 -19 -107 0
1 49 107 0
1 -49 -107 0
1 110 81 0
1 -110 -81 0
1 56 71 0
1 -56 -71 0
1 69 72 0
1 -69 -72 0
1 113 95 0
1 -113 -95 0
1 130 123 0
1 -130 -123 0
1 61 129 0
1 -61 -129 0
1 37 47 0
1 -37 -47 0
1 43 81 0
1 -43 -81 0
1 104 129 0
1 -104 -129 0
1 135 68 0
1 -135 -68 0
1 118 131 0
1 -118 -131 0
1 82 124 0
1 -82 -124 0
1 23 137 0
1 -23 -137 0
1 79 55 0
1 -79 -55 0
1 58 38 0
1 -58 -38 0
1 27 85 0
1 -27 -85 0
1 61 126 0
1 -61 -126 0
1 29 64 0
1 -29 -64 0
1 76 119 0
1 -76 -119 0
1 1 38 0
1 -1 -38 0
1 83 51 0
1 -83 -51 0
1 24 88 0
1 -24 -88 0
1 80 128 0
1 -80 -128 0
1 137 17 0
1 -137 -17 0
1 56 105 0
1 -56 -105 0
1 43 123 0
1 -43 -123 0
1 45 46 0
1 -45 -46 0
1 17 54 0
1 -17 -54 0
1 11 5 0
1 -11 -5 0
1 31 81 0
1 -31 -81 0
1 125 19 0
1 -125 -19 0
1 23 106 0
1 -23 -106 0
1 52 67 0
1 -52 -67 0
1 137 41 0
1 -137 -41 0
1 22 36 0
1 -22 -36 0
1 85 93 0
1 -85 -93 0
1 66 50 0
1 -66 -50 0
1 55 124 0
1 -55 -124 0
1 48 129 0
1 -48 -129 0
1 123 5 0
1 -123 -5 0
1 8 84 0
1 -8 -84 0
1 30 52 0
1 -30 -52 0
1 3 128 0
1 -3 -128 0
1 85 84 0
1 -85 -84 0
1 113 52 0
1 -113 -52 0
1 34 128 0
1 -34 -128 0
1 126 26 0
1 -126 -26 0
1 69 36 0
1 -69 -36 0
1 78 26 0
1 -78 -26 0
1 86 94 0
1 -86 -94 0
1 73 6 0
1 -73 -6 0
1 19 14 0
1 -19 -14 0
1 22 32 0
1 -22 -32 0
1 108 12 0
1 -108 -12 0
1 16 91 0
1 -16 -91 0
1 133 92 0
1 -133 -92 0
1 89 18 0
1 -89 -18 0
1 95 61 0
1 -95 -61 0
1 89 119 0
1 -89 -119 0
1 29 91 0
1 -29 -91 0
1 59 90 0
1 -59 -90 0
1 82 28 0
1 -82 -28 0
1 15 88 0
1 -15 -88 0
1 87 25 0
1 -87 -25 0
1 99 16 0
1 -99 -16 0
1 80 73 0
1 -80 -73 0
1 134 112 0
1 -134 -112 0
1 112 16 0
1 -112 -16 0
1 110 26 0
1 -110 -26 0
1 42 125 0
1 -42 -125 0
1 97 44 0
1 -97 -44 0
1 116 31 0
1 -116 -31 0
1 10 112 0
1 -10 -112 0
1 89 137 0
1 -89 -137 0
1 54 18 0
1 -54 -18 0
1 132 140 0
1 -132 -140 0
1 116 92 0
1 -116 -92 0
1 51 65 0
1 -51 -65 0
1 137 25 0
1 -137 -25 0
1 99 135 0
1 -99 -135 0
1 11 78 0
1 -11 -78 0
1 96 81 0
1 -96 -81 0
1 42 29 0
1 -42 -29 0
1 60 114 0
1 -60 -114 0
1 11 64 0
1 -11 -64 0
1 39 32 0
1 -39 -32 0
1 88 127 0
1 -88 -127 0
1 75 12 0
1 -75 -12 0
1 135 96 0
1 -135 -96 0
1 91 26 0
1 -91 -26 0
1 30 21 0
1 -30 -21 0
1 48 123 0
1 -48 -123 0
1 108 14 0
1 -108 -14 0
1 87 129 0
1 -87 -129 0
1 7 26 0
1 -7 -26 0
1 130 28 0
1 -130 -28 0
1 98 54 0
1 -98 -54 0
1 21 116 0
1 -21 -116 0
1 34 17 0
1 -34 -17 0
1 134 117 0
1 -134 -117 0
1 61 96 0
1 -61 -96 0
1 48 62 0
1 -48 -62 0
1 118 12 0
1 -118 -12 0
1 108 72 0
1 -108 -72 0
1 81 40 0
1 -81 -40 0
1 104 139 0
1 -104 -139 0
1 12 77 0
1 -12 -77 0
1 39 46 0
1 -39 -46 0
1 84 12 0
1 -84 -12 0
1 88 16 0
1 -88 -16 0
1 81 104 0
1 -81 -104 0
1 132 41 0
1 -132 -41 0
1 89 17 0
1 -89 -17 0
1 2 66 0
1 -2 -66 0
1 96 70 0
1 -96 -70 0
1 89 9 0
1 -89 -9 0
1 125 70 0
1 -125 -70 0
1 81 29 0
1 -81 -29 0
1 19 92 0
1 -19 -92 0
1 37 91 0
1 -37 -91 0
1 40 46 0
1 -40 -46 0
1 48 60 0
1 -48 -60 0
1 30 73 0
1 -30 -73 0
1 42 92 0
1 -42 -92 0
1 6 12 0
1 -6 -12 0
1 69 6 0
1 -69 -6 0
1 101 18 0
1 -101 -18 0
1 110 73 0
1 -110 -73 0
1 85 91 0
1 -85 -91 0
1 62 16 0
1 -62 -16 0
1 98 9 0
1 -98 -9 0
1 7 28 0
1 -7 -28 0
1 131 53 0
1 -131 -53 0
1 115 121 0
1 -115 -121 0
1 80 37 0
1 -80 -37 0
1 115 80 0
1 -115 -80 0
1 105 35 0
1 -105 -35 0
1 34 35 0
1 -34 -35 0
1 2 26 0
1 -2 -26 0
1 115 26 0
1 -115 -26 0
1 54 123 0
1 -54 -123 0
1 140 58 0
1 -140 -58 0
1 59 105 0
1 -59 -105 0
1 43 12 0
1 -43 -12 0
1 76 105 0
1 -76 -105 0
1 39 52 0
1 -39 -52 0
1 83 79 0
1 -83 -79 0
1 40 25 0
1 -40 -25 0
1 55 28 0
1 -55 -28 0
1 58 122 0
1 -58 -122 0
1 89 54 0
1 -89 -54 0
1 58 139 0
1 -58 -139 0
1 4 50 0
1 -4 -50 0
1 134 130 0
1 -134 -130 0
1 100 9 0
1 -100 -9 0
1 93 46 0
1 -93 -46 0
1 20 43 0
1 -20 -43 0
1 137 11 0
1 -137 -11 0
1 55 66 0
1 -55 -66 0
1 13 26 0
1 -13 -26 0
1 60 59 0
1 -60 -59 0
1 30 136 0
1 -30 -136 0
1 27 53 0
1 -27 -53 0
1 75 90 0
1 -75 -90 0
1 42 18 0
1 -42 -18 0
1 134 91 0
1 -134 -91 0
1 59 139 0
1 -59 -139 0
1 21 72 0
1 -21 -72 0
1 113 82 0
1 -113 -82 0
1 132 99 0
1 -132 -99 0
1 99 126 0
1 -99 -126 0
1 124 37 0
1 -124 -37 0
1 137 109 0
1 -137 -109 0
1 105 67 0
1 -105 -67 0
1 60 116 0
1 -60 -116 0
1 15 124 0
1 -15 -124 0
1 98 87 0
1 -98 -87 0
1 83 14 0
1 -83 -14 0
1 136 71 0
1 -136 -71 0
1 135 49 0
1 -135 -49 0
1 115 77 0
1 -115 -77 0
1 6 129 0
1 -6 -129 0
1 131 4 0
1 -131 -4 0
1 23 27 0
1 -23 -27 0
1 15 14 0
1 -15 -14 0
1 40 126 0
1 -40 -126 0
1 137 36 0
1 -137 -36 0
1 135 37 0
1 -135 -37 0
1 125 43 0
1 -125 -43 0
1 111 33 0
1 -111 -33 0
1 10 41 0
1 -10 -41 0
1 19 5 0
1 -19 -5 0
1 70 26 0
1 -70 -26 0
1 95 25 0
1 -95 -25 0
1 122 81 0
1 -122 -81 0
1 133 104 0
1 -133 -104 0
1 137 135 0
1 -137 -135 0
1 50 91 0
1 -50 -91 0
1 3 47 0
1 -3 -47 0
1 94 18 0
1 -94 -18 0
1 125 135 0
1 -125 -135 0
1 100 2 0
1 -100 -2 0
1 17 9 0
1 -17 -9 0
1 108 40 0
1 -108 -40 0
1 61 37 0
1 -61 -37 0
1 24 127 0
1 -24 -127 0
1 137 43 0
1 -137 -43 0
1 83 44 0
1 -83 -44 0
1 111 139 0
1 -111 -139 0
1 97 65 0
1 -97 -65 0
1 115 99 0
1 -115 -99 0
1 95 130 0
1 -95 -130 0
1 53 46 0
1 -53 -46 0
1 135 35 0
1 -135 -35 0
1 140 74 0
1 -140 -74 0
1 39 114 0
1 -39 -114 0
1 127 92 0
1 -127 -92 0
1 130 4 0
1 -130 -4 0
1 35 38 0
1 -35 -38 0
1 132 61 0
1 -132 -61 0
1 60 3 0
1 -60 -3 0
1 81 71 0
1 -81 -71 0
1 101 94 0
1 -101 -94 0
1 50 107 0
1 -50 -107 0
1 124 114 0
1 -124 -114 0
1 138 74 0
1 -138 -74 0
1 8 138 0
1 -8 -138 0
1 89 134 0
1 -89 -134 0
1 52 58 0
1 -52 -58 0
1 65 50 0
1 -65 -50 0
1 70 104 0
1 -70 -104 0
1 1 97 0
1 -1 -97 0
1 85 37 0
1 -85 -37 0
1 66 136 0
1 -66 -136 0
1 110 59 0
1 -110 -59 0
1 27 49 0
1 -27 -49 0
1 45 29 0
1 -45 -29 0
1 7 87 0
1 -7 -87 0
1 80 70 0
1 -80 -70 0
1 89 108 0
1 -89 -108 0
1 52 78 0
1 -52 -78 0
1 47 129 0
1 -47 -129 0
1 118 122 0
1 -118 -122 0
1 51 25 0
1 -51 -25 0
1 22 18 0
1 -22 -18 0
1 88 105 0
1 -88 -105 0
1 65 107 0
1 -65 -107 0
1 105 129 0
1 -105 -129 0
1 138 119 0
1 -138 -119 0
1 44 18 0
1 -44 -18 0
1 22 129 0
1 -22 -129 0
1 82 24 0
1 -82 -24 0
1 10 97 0
1 -10 -97 0
1 51 40 0
1 -51 -40 0
1 33 103 0
1 -33 -103 0
1 21 110 0
1 -21 -110 0
1 100 19 0
1 -100 -19 0
1 110 57 0
1 -110 -57 0
1 2 71 0
1 -2 -71 0
1 22 38 0
1 -22 -38 0
1 53 16 0
1 -53 -16 0
1 61 70 0
1 -61 -70 0
1 80 124 0
1 -80 -124 0
1 130 5 0
1 -130 -5 0
1 69 110 0
1 -69 -110 0
1 89 29 0
1 -89 -29 0
1 14 38 0
1 -14 -38 0
1 45 104 0
1 -45 -104 0
